\ Model QCP
\ LP format - for model browsing. Use MPS format to capture full model detail.
Minimize
  z + y
Subject To
 Cut_0: z + [ ] >= 480
 Cut_1: z + [ ] >= 480
 Cut_2: z + [ ] >= 480
 Cut_3: z + [ ] >= 480
 Cut_4: z + [ ] >= 480
 Cut_5: z + [ ] >= 480
 Cut_6: z + [ ] >= 480
 Cut_7: z + [ ] >= 480
 Cut_8: z + [ ] >= 480
 Cut_9: z + [ ] >= 480
Bounds
 z = 480
 y = 8.48528137423857
End
